benchmarks/bfuzz0/3199244121282915065482928722848023238.smt2
(set-logic QF_FP)
(declare-const x0 (_ FloatingPoint 11 53))
(declare-const x1 (_ FloatingPoint 11 53))
(declare-const x2 (_ FloatingPoint 11 53))
(declare-const x3 (_ FloatingPoint 11 53))
(declare-const x4 (_ FloatingPoint 11 53))
(declare-const x5 (_ FloatingPoint 11 53))
(declare-const x6 (_ FloatingPoint 11 53))
(declare-const x7 (_ FloatingPoint 11 53))
(declare-const x8 (_ FloatingPoint 11 53))
(declare-const x9 (_ FloatingPoint 11 53))
(declare-const x10 (_ FloatingPoint 11 53))
(declare-const x11 (_ FloatingPoint 11 53))
(declare-const x12 (_ FloatingPoint 11 53))
(declare-const x13 (_ FloatingPoint 11 53))
(declare-const x14 (_ FloatingPoint 11 53))
(declare-const x15 (_ FloatingPoint 11 53))
(declare-const x16 (_ FloatingPoint 11 53))
(declare-const x17 (_ FloatingPoint 11 53))
(declare-const x18 (_ FloatingPoint 11 53))
(declare-const x19 (_ FloatingPoint 11 53))
(declare-const x20 (_ FloatingPoint 11 53))
(assert (fp.eq (fp.neg x1) (fp.div RNE x6 x8)))
(assert (fp.lt (fp.neg x11) (fp.mul RNE x17 x4)))
(assert (fp.leq (fp.div RNE x7 x0) (fp.add RNE x10 x9)))
(assert (fp.lt (fp.mul RNE x7 x5) (fp.div RNE x9 x19)))
(assert (fp.eq (fp.add RNE x6 x11) (fp.neg x16)))
(assert (fp.gt (fp.sub RNE x7 x8) (fp.neg x0)))
(assert (fp.leq (fp.div RNE x11 x2) (fp.mul RNE x14 x20)))
(assert (fp.lt (fp.div RNE x18 x11) (fp.sub RNE x19 x11)))
(assert (fp.lt (fp.mul RNE x1 x5) (fp.neg x12)))
(assert (fp.gt (fp.add RNE x10 x18) (fp.sub RNE x15 x20)))
(assert (fp.lt (fp.add RNE x1 x20) (fp.add RNE x19 x8)))
(assert (fp.gt (fp.mul RNE x12 x10) (fp.mul RNE x4 x5)))
(assert (fp.leq (fp.neg x12) (fp.div RNE x8 x4)))
(assert (fp.geq (fp.add RNE x7 x12) (fp.neg x8)))
(check-sat)
