db/data/3199244121282915065482928722848023238.z3.out
-------------------
2500.191361872
